(set-logic QF_LRA)
(set-option :produce-models true)
(declare-fun x () Real)
(declare-fun y () Real)
(declare-fun z () Real)
(declare-fun a () Bool)
(declare-fun b () Bool)
(assert (=> a b))
;(assert (=> a (not b)))
(check-sat)
(push 1)
(assert (not a))
(check-sat)
(get-value (a))
(exit)
